9
0 47 39 201 206 70 414 50 529
47 0 9 256 508 607 398 45 50
39 9 0 34 140 33 71 862 136
201 256 34 0 2 799 889 16 77
206 508 140 2 0 40 365 53 144
70 607 33 799 40 0 674 99 156
414 398 71 889 365 674 0 5 328
50 45 862 16 53 99 5 0 39
529 50 136 77 144 156 328 39 0